100
32
4
7
21
6
1
15
16
7
9
13
18
10
23
4
14
4
5
8
25
12
5
16
2
3
17
4
18
1
23
1
19
2
9
2
3
2
5
18
2
3
3
2
2
2
4
2
1
8
1
2
18
8
4
2
2
21
4
2
3
1
18
3
1
1
1
1
21
6
5
4
1
2
2
1
1
3
1
4
2
1
1
1
3
2
1
1
1
17
6
2
17
1
5
2
9
18
1
1
2
1